c ---- [ banner ] ------------------------------------------------------------
c
c KISSAT SAT Solver
c Copyright (c) 2019-2020 Armin Biere JKU Linz
c 
c Version 1.0.3 ee6bbba10064a8b073dddf4529a607ec4ef4fabe
c gcc (Ubuntu 9.4.0-1ubuntu1~20.04.1) 9.4.0 -g -W -Wall -O3 -DNEMBEDDED -DNDEBUG -DBIN_NBIN_BTRANSITIONS -DNMETRICS -DNSTATISTICS
c Tue Apr 4 14:37:18 IST 2023 Linux Karthikeya 5.15.0-69-generic x86_64
c
c ---- [ parsing ] -----------------------------------------------------------
c
c opened and reading DIMACS file:
c 
c   ../../../benchmark_instances_2022/7993005e2949524b293b216ed9c65126-cfi-rigid-s2-0064-03-or_2_shuffle_all.cnf
c 
c parsed 'p cnf 8192 15169408' header
c closing input after reading 193282474 bytes (184 MB)
c finished parsing after 3.90 seconds
c
c ---- [ solving ] -----------------------------------------------------------
c
c  seconds  reductions redundant irredundant
c          MB   restarts    trail        variables
c           level  conflicts   glue           remaining
c
c *  3.90 192 0  0  0   0   0 0% 0 15169408 8192 100%
c {  3.90 192 0  0  0   0   0 0% 0 15169408 8192 100%
c -  4.08 196 27  1 28 300 245 85% 4 15169408 8192 100%
c -  4.31 203 31  2 104 900 787 86% 4 15169408 8192 100%
c }  4.32 204 34  2 140 1001 887 85% 6 15169408 8192 100%
c [  4.32 204 0  2 140 1001 887 0% 0 15169408 8192 100%
c O  4.52 204 63  2 140 1002 888 94% 5 15169408 8192 100%
c ]  4.60 205 351  2 140 1486 1350 79% 104 15169408 8192 100%
c {  4.60 205 34  2 140 1486 1350 85% 6 15169408 8192 100%
c -  4.93 207 36  3 226 1800 1175 85% 6 15169408 8192 100%
c -  5.30 220 37  4 437 3000 1817 84% 7 15169408 8192 100%
c I  5.30 220 37  4 437 3004 1821 84% 7 15169408 8192 100%
c }  5.35 220 36  4 445 3486 2287 84% 7 15169408 8192 100%
c [  5.35 220 351  4 445 3486 2287 79% 104 15169408 8192 100%
c -  5.76 223 574  5 445 4500 2213 80% 161 15169408 8192 100%
c ]  5.94 224 1263  5 446 4921 2563 83% 198 15169408 8192 100%
c {  5.94 224 36  5 446 4921 2563 84% 7 15169408 8192 100%
c B  6.25 227 35  5 512 6005 3594 85% 7 15169408 8192 100%
c -  6.51 229 34  6 515 6300 2718 85% 6 15169408 8192 100%
c -  6.99 247 35  7 890 8400 3803 84% 7 15169408 8192 100%
c
c  seconds   reductions   redundant   irredundant
c          MB    restarts        trail        variables
c           level    conflicts      glue           remaining
c
c i  7.04 247 35  7 942 8707 4047 84% 8 15169408 8191 100%
c }  7.26 247 42  7 992 9921 5211 85% 7 15169408 8191 100%
c [  7.26 247 1263  7 992 9921 5211 83% 198 15169408 8191 100%
c W  8.91 247 1180  7 992 10006 5255 83% 187 15165716 8191 100%
c -  9.38 248 935  8 992 10800 4302 81% 178 15165716 8191 100%
c ]  9.83 251 561  8 994 13396 6650 81% 127 15165716 8191 100%
c {  9.83 251 42  8 994 13396 6650 85% 7 15165716 8191 100%
c - 10.05 244 43  9 1022 13501 4084 85% 7 15165716 8191 100%
c O 10.43 245 42  9 1144 15008 5544 85% 7 15165716 8191 100%
c - 10.89 265 42 10 1241 16501 5340 85% 7 15165716 8191 100%
c i 10.95 271 43 10 1282 16713 5532 85% 7 15165716 8190 100%
c - 11.56 295 54 11 1452 19801 7296 85% 8 15161978 8190 100%
c B 11.88 295 99 11 1518 21270 8140 84% 11 15161978 8190 100%
c } 12.19 298 109 11 1698 23396 10165 84% 17 15161978 8190 100%
c [ 12.19 298 561 11 1698 23396 10165 81% 127 15161978 8190 100%
c - 12.36 298 561 12 1698 23401 8007 81% 127 15161978 8190 100%
c - 13.78 302 980 13 1700 27301 7225 78% 183 15161978 8190 100%
c W 15.91 302 1022 13 1701 28271 8133 78% 215 15161978 8190 100%
c u 16.42 303 952 13 1702 29405 9078 78% 206 15161978 8190 100%
c v 16.55 303 952 13 1702 29405 9078 78% 206 15161978 8190 100%
c
c  seconds    reductions     redundant     irredundant
c          MB      restarts         trail          variables
c            level      conflicts       glue            remaining
c
c ] 16.61 303 939 13 1702 29653 9285 78% 203 15161978 8190 100%
c { 16.61 303 109 13 1702 29653 9285 84% 17 15161978 8190 100%
c - 17.03 303 102 14 1714 31501 7457 84% 16 15161978 8190 100%
c - 18.52 370 94 15 1902 36001 9570 84% 15 15161978 8190 100%
c I 18.57 374 93 15 1906 36273 9837 84% 15 15161978 8190 100%
c i 19.50 395 84 15 2016 40445 13856 84% 14 15161978 8189 100%
c - 19.88 395 83 16 2019 40801 11828 84% 13 15158287 8189 100%
c i 20.18 395 81 16 2101 43006 13904 84% 13 15158287 8188 100%
c B 20.48 396 83 16 2273 45274 16091 84% 16 15158287 8188 100%
c - 20.77 397 83 17 2286 45901 13396 84% 16 15154595 8188 100%
c ^ 21.12 397 83 17 2286 46250 13736 84% 16 15154595 8188 100%
c } 21.24 397 83 17 2288 46653 14112 84% 15 15154595 8188 100%
c [ 21.24 397 939 17 2288 46653 14112 78% 203 15154595 8188 100%
c u 22.21 397 857 17 2290 49005 15986 78% 184 15154595 8188 100%
c v 22.55 398 857 17 2290 49005 15986 78% 184 15154595 8188 100%
c - 23.55 402 888 18 2291 51302 12630 78% 195 15154595 8188 100%
c B 26.29 402 778 18 2294 55276 16115 77% 192 15154595 8188 100%
c ] 26.60 402 728 18 2294 56542 17198 77% 180 15154595 8188 100%
c { 26.60 402 83 18 2294 56542 17198 84% 15 15154595 8188 100%
c - 26.83 402 83 19 2319 57002 11542 84% 15 15154595 8188 100%
c
c  seconds   reductions      redundant    irredundant
c          MB     restarts          trail         variables
c           level      conflicts        glue           remaining
c
c i 27.04 402 82 19 2421 58288 12723 84% 15 15154595 8187 100%
c i 27.52 402 79 19 2520 62155 16406 84% 15 15154595 8186 100%
c - 27.87 402 79 20 2533 63002 13539 84% 15 15147260 8186 100%
c # 28.29 402 78 20 2656 66282 16471 84% 14 15147260 8186 100%
c - 28.97 415 76 21 2760 69302 16827 84% 14 15147260 8186 100%
c i 29.28 430 75 21 2763 70242 17708 84% 14 15147260 8185 100%
c i 29.82 471 75 21 2936 73483 20809 84% 14 15147260 8184 100%
c u 30.12 472 75 21 2937 73505 20655 84% 14 15147260 8184 100%
c v 30.35 474 75 21 2937 73505 20551 84% 14 15147260 8184 100%
c - 31.81 496 73 22 2976 75902 19149 84% 13 15139879 8184 100%
c i 32.13 512 72 22 3073 77080 20226 84% 13 15139879 8183 100%
c B 32.35 524 72 22 3115 78283 21380 84% 13 15139879 8183 100%
c } 33.80 586 71 22 3351 82544 25467 84% 13 15139879 8183 100%
c [ 33.80 586 728 22 3351 82544 25467 77% 180 15139879 8183 100%
c - 34.13 587 721 23 3351 82802 21018 77% 178 15136190 8183 100%
c - 36.97 594 703 24 3356 90004 19321 76% 187 15136190 8183 100%
c W 39.08 594 692 24 3357 91284 20484 76% 188 15136190 8183 100%
c ^ 41.11 594 758 24 3358 95253 23664 77% 251 15136190 8183 100%
c ] 41.40 594 753 24 3358 95854 24196 77% 250 15136190 8183 100%
c { 41.40 594 71 24 3358 95854 24196 84% 13 15136190 8183 100%
c
c  seconds   reductions      redundant    irredundant
c          MB     restarts          trail         variables
c           level      conflicts        glue           remaining
c
c - 41.91 600 71 25 3492 97505 17683 84% 13 15136190 8183 100%
c i 43.56 600 75 25 3843 102248 21805 84% 14 15136190 8182 100%
c 3 43.83 600 74 25 3871 102906 22440 84% 14 15136190 8182 100%
c f 43.97 600 74 25 3871 102906 22446 84% 14 15136190 8182 100%
c u 44.16 601 74 25 3871 102906 22376 84% 14 15136190 8182 100%
c v 44.46 601 74 25 3871 102906 22359 84% 14 15136190 8182 100%
c F 45.82 601 74 25 3902 105287 24625 84% 13 15136190 8182 100%
c - 46.12 601 74 26 3902 105308 20932 84% 13 15132456 8182 100%
c i 47.30 601 73 26 4258 109441 24739 84% 13 15132456 8181 100%
c i 48.41 601 74 26 4537 112967 28104 84% 14 15132456 8180 100%
c - 48.93 601 74 27 4587 113408 24399 84% 14 15125130 8180 100%
c i 49.53 601 73 27 4713 116545 27404 84% 13 15125130 8179 100%
c B 51.04 602 73 27 4881 120288 30318 84% 13 15121487 8179 100%
c - 51.61 602 74 28 5051 121808 26533 84% 13 15121487 8179 100%
c i 51.94 602 74 28 5148 122626 27266 84% 13 15121487 8178 100%
c i 53.46 654 75 28 5457 127337 31812 84% 14 15121487 8177 100%
c - 55.25 703 78 29 5686 130508 29032 84% 14 15114110 8177 100%
c i 55.76 720 78 29 5788 132422 30820 84% 14 15114110 8176 100%
c } 55.84 725 78 29 5789 132855 31244 84% 14 15114110 8176 100%
c [ 55.84 725 753 29 5789 132855 31244 77% 250 15114110 8176 100%
c
c  seconds    reductions       redundant     irredundant
c          MB      restarts           trail          variables
c            level      conflicts         glue            remaining
c
c W 58.65 728 794 29 5791 136289 34136 77% 263 15110467 8176 100%
c 3 59.97 730 819 29 5792 137206 35006 76% 276 15110467 8176 100%
c u 60.46 731 819 29 5792 137206 34705 76% 276 15110467 8176 100%
c v 60.87 732 819 29 5792 137206 34577 76% 276 15110467 8176 100%
c - 63.21 735 801 30 5794 139508 27964 76% 274 15110467 8176 100%
c - 66.81 736 698 31 5798 148809 26151 76% 242 15110467 8176 100%
c ] 67.17 736 689 31 5799 149780 26941 76% 237 15110467 8176 100%
c { 67.17 736 78 31 5799 149780 26941 84% 14 15110467 8176 100%
c O 68.59 777 77 31 6036 153293 30312 84% 14 15110467 8176 100%
c i 70.25 861 75 31 6371 157299 34128 84% 14 15110467 8175 100%
c - 70.82 875 77 32 6458 158409 29588 84% 14 15106785 8175 100%
c i 72.07 934 77 32 6549 161262 32319 84% 14 15106785 8174 100%
c i 72.56 950 83 32 6619 163331 33975 84% 15 15106785 8173 100%
c - 74.50 983 82 33 6756 168310 34443 84% 14 15099368 8173 100%
c ^ 74.91 983 82 33 6778 168754 34861 84% 14 15099368 8173 100%
c i 75.21 983 82 33 6834 169509 35542 84% 14 15099368 8172 100%
c B 75.57 983 81 33 6913 171294 37240 84% 14 15099368 8172 100%
c 3 77.42 983 80 33 7151 176406 42118 84% 14 15099368 8172 100%
c u 77.96 985 80 33 7151 176406 41770 84% 14 15099368 8172 100%
c v 78.43 985 80 33 7151 176406 41620 84% 14 15099368 8172 100%
c
c  seconds   reductions       redundant    irredundant
c          MB     restarts           trail         variables
c           level      conflicts         glue           remaining
c
c i 79.00 986 79 33 7159 176663 41683 84% 14 15099368 8171 100%
c - 79.89 986 79 34 7232 178510 36776 84% 14 15091959 8171 100%
c i 80.45 986 78 34 7290 180220 38414 84% 14 15091959 8170 100%
c i 82.97 986 78 34 7711 187745 45518 84% 14 15091959 8169 100%
c - 83.61 987 78 35 7753 189010 39383 84% 14 15084600 8169 100%
c W 85.79 988 77 35 7802 190295 40630 84% 14 15084600 8169 100%
c i 86.32 988 77 35 7894 191631 41911 84% 14 15084600 8168 100%
c i 88.67 993 77 35 8214 197417 47430 84% 14 15084600 8167 100%
c } 89.48 995 77 35 8305 199781 49561 84% 14 15084600 8167 100%
c [ 89.48 995 689 35 8305 199781 49561 76% 237 15084600 8167 100%
c - 89.85 995 688 36 8305 199812 42303 76% 237 15077195 8167 100%
c i 91.15 995 666 36 8307 202216 44348 76% 230 15077195 8166 100%
c I 94.91 999 651 36 8311 210296 51552 77% 215 15077195 8166 100%
c - 95.49 1000 643 37 8311 210912 40403 77% 212 15073513 8166 100%
c 3 99.50 1000 603 37 8317 220512 48710 77% 198 15073513 8166 100%
c u 100.39 1000 603 37 8317 220512 48649 77% 198 15073513 8166 100%
c v 101.22 1001 603 37 8317 220512 48649 77% 198 15073513 8166 100%
c - 103.53 1001 589 38 8318 222312 37751 78% 194 15073513 8166 100%
c ] 106.58 1001 563 38 8319 229684 43908 78% 187 15073513 8166 100%
c { 106.58 1001 77 38 8319 229684 43908 84% 14 15073513 8166 100%
c
c  seconds     reductions       redundant    irredundant
c            MB     restarts           trail         variables
c             level      conflicts         glue           remaining
c
c B 107.09 1001 76 38 8395 231297 45467 84% 14 15073513 8166 100%
c - 108.61 1002 76 39 8477 234012 39537 84% 14 15073513 8166 100%
c i 111.45 1002 76 39 8949 238848 44093 84% 14 15073513 8165 100%
c i 113.96 1006 77 39 9313 245456 50370 84% 14 15073513 8164 100%
c - 114.45 1007 77 40 9330 246012 44567 84% 14 15066162 8164 100%
c i 115.55 1007 77 40 9532 248962 47264 84% 14 15066162 8163 100%
c W 118.60 1037 76 40 9656 253298 50741 84% 14 15062537 8163 100%
c i 119.37 1054 76 40 9766 255048 52413 84% 14 15062537 8162 100%
c i 120.43 1074 76 40 9872 257026 54240 84% 14 15062537 8161 100%
c - 121.55 1086 76 41 9895 258312 48975 84% 14 15055183 8161 100%
c i 122.08 1105 77 41 10046 259880 50468 84% 14 15055183 8160 100%
c ^ 125.17 1208 76 41 10421 266754 57000 84% 14 15051507 8160 100%
c i 125.46 1214 75 41 10421 267044 56949 84% 14 15051507 8159 100%
c 3 126.92 1247 75 41 10495 269515 59264 84% 14 15051507 8159 100%
c u 128.34 1248 75 41 10495 269515 58943 84% 14 15051507 8159 100%
c v 129.31 1250 75 41 10495 269515 58804 84% 14 15051507 8159 100%
c - 131.34 1271 75 42 10574 270912 52930 84% 14 15047740 8159 100%
c i 132.63 1293 75 42 10718 272229 54136 84% 14 15047740 8158 100%
c # 134.64 1327 75 42 10891 276299 58055 84% 14 15047740 8158 100%
c i 136.23 1351 75 42 11000 278772 60390 84% 14 15047740 8157 100%
c
c  seconds     reductions        redundant    irredundant
c            MB     restarts            trail         variables
c             level       conflicts         glue           remaining
c
c i 138.36 1403 74 42 11162 282874 64262 84% 14 15047740 8156 100%
c - 139.14 1413 74 43 11168 283813 55213 84% 14 15036752 8156 100%
c i 141.75 1502 74 43 11401 289236 60249 84% 14 15036752 8155 100%
c i 142.20 1511 74 43 11457 290267 61200 84% 14 15036752 8154 100%
c i 144.34 1575 75 43 11647 294565 65321 84% 14 15036752 8153 100%
c } 144.36 1575 75 43 11648 294685 65434 84% 14 15036752 8153 100%
c [ 144.36 1575 563 43 11648 294685 65434 78% 187 15036752 8153 100%
c - 146.37 1579 564 44 11650 297013 57095 78% 185 15025673 8153 100%
c B 148.59 1579 574 44 11652 300312 59961 78% 186 15025673 8153 100%
c - 155.08 1584 646 45 11657 310513 54308 77% 199 15025673 8153 100%
c 3 162.26 1585 773 45 11662 323418 65581 77% 225 15025673 8153 100%
c u 163.80 1585 773 45 11662 323418 65455 77% 225 15025673 8153 100%
c v 164.95 1588 773 45 11662 323418 65455 77% 225 15025673 8153 100%
c - 167.17 1589 766 46 11662 324313 51011 77% 224 15025673 8153 100%
c W 169.44 1589 758 46 11662 325314 51921 77% 222 15025673 8153 100%
c ] 173.26 1589 711 46 11666 332906 58243 77% 209 15025673 8153 100%
c { 173.26 1589 75 46 11666 332906 58243 84% 14 15025673 8153 100%
c i 174.93 1644 74 46 11817 335417 60590 84% 14 15025673 8152 99%
c - 176.78 1671 74 47 11879 338414 53871 84% 14 15021995 8152 99%
c i 177.52 1690 74 47 11982 339878 55228 84% 14 15021995 8151 99%
c
c  seconds     reductions        redundant    irredundant
c            MB     restarts            trail         variables
c             level       conflicts         glue           remaining
c
c i 179.15 1716 74 47 12091 343009 58147 84% 14 15021995 8150 99%
c i 180.90 1748 74 47 12299 346674 61682 84% 14 15021995 8149 99%
c i 182.46 1766 73 47 12419 349217 64019 84% 14 15021995 8148 99%
c F 183.93 1766 73 47 12445 351315 64012 84% 14 15007366 8148 99%
c - 184.96 1766 73 48 12491 352814 59894 84% 14 15007366 8148 99%
c i 185.45 1766 73 48 12537 353815 60740 84% 14 15007366 8147 99%
c i 185.76 1766 73 48 12576 354673 61408 84% 14 15007366 8146 99%
c i 188.93 1766 73 48 13059 361478 67856 84% 14 15007366 8145 99%
c i 190.43 1766 73 48 13248 363529 69829 84% 14 15007366 8144 99%
c i 192.27 1766 73 48 13440 366414 72552 84% 14 15007366 8143 99%
c - 193.40 1766 73 49 13539 367515 64735 84% 14 14989068 8143 99%
c i 196.42 1766 73 49 13819 373204 70058 84% 14 14989068 8142 99%
c i 197.97 1766 73 49 13928 375538 72207 84% 14 14989068 8141 99%
c B 199.68 1766 73 49 14019 378316 74856 84% 14 14989068 8141 99%
c 3 202.16 1769 72 49 14329 382218 78548 84% 14 14989068 8141 99%
c f 202.63 1769 72 49 14329 382218 78459 84% 14 14989068 8141 99%
c u 204.04 1770 72 49 14329 382218 77898 84% 14 14989068 8141 99%
c v 205.48 1772 72 49 14329 382218 77716 84% 14 14989068 8141 99%
c - 207.10 1773 72 50 14329 382515 68510 84% 14 14981677 8141 99%
c i 208.50 1773 72 50 14410 383550 69464 84% 14 14981677 8140 99%
c
c  seconds     reductions        redundant    irredundant
c            MB     restarts            trail         variables
c             level       conflicts         glue           remaining
c
c i 209.63 1773 73 50 14552 384905 70736 84% 14 14981677 8139 99%
c ^ 212.15 1773 72 50 14652 389254 74822 84% 14 14974349 8139 99%
c i 213.12 1773 72 50 14679 390236 75056 84% 14 14974349 8138 99%
c i 215.83 1774 72 50 14989 395059 79570 83% 14 14974349 8137 99%
c - 218.05 1777 71 51 15117 397815 72075 83% 14 14967025 8137 99%
c i 220.82 1777 71 51 15247 402219 76190 83% 14 14967025 8136 99%
c W 224.52 1777 71 51 15384 406317 79374 84% 14 14963404 8136 99%
c i 226.71 1777 72 51 15688 409406 82208 83% 14 14963404 8135 99%
c i 228.98 1780 71 51 15906 412495 85121 83% 14 14963404 8134 99%
c - 229.88 1781 72 52 15926 413418 75118 83% 14 14956131 8134 99%
c } 230.67 1781 71 52 15976 414906 76527 83% 14 14956131 8134 99%
c [ 230.67 1781 711 52 15976 414906 76527 77% 209 14956131 8134 99%
c i 237.02 1782 703 52 15982 425673 85714 77% 204 14956131 8133 99%
c - 240.16 1786 687 53 15984 429318 73543 77% 198 14952561 8133 99%
c O 243.87 1786 683 53 15988 435320 78611 77% 195 14952561 8133 99%
c - 250.64 1786 650 54 15990 445518 71242 78% 187 14952561 8133 99%
c 3 250.92 1786 648 54 15990 445918 71605 78% 186 14952561 8133 99%
c f 251.42 1786 648 54 15990 445918 71652 78% 186 14952561 8133 99%
c u 252.97 1786 648 54 15990 445918 71538 78% 186 14952561 8133 99%
c v 254.46 1787 648 54 15990 445918 71538 78% 186 14952561 8133 99%
c
c  seconds      reductions        redundant     irredundant
c            MB      restarts            trail          variables
c              level       conflicts         glue            remaining
c
c - 266.30 1789 660 55 15998 462018 71497 77% 193 14952561 8133 99%
c i 268.81 1789 652 55 16000 465175 74159 77% 191 14952561 8132 99%
c B 268.87 1789 652 55 16000 465342 74324 77% 191 14952561 8132 99%
c ] 270.79 1789 655 55 16002 467138 75989 77% 191 14952561 8132 99%
c { 270.79 1789 71 55 16002 467138 75989 83% 14 14952561 8132 99%
c i 272.56 1789 72 55 16094 470025 78687 83% 14 14952561 8131 99%
c i 275.53 1789 71 55 16440 475419 83637 83% 14 14952561 8130 99%
c - 277.70 1789 71 56 16536 478818 75467 83% 14 14941623 8130 99%
c i 280.96 1789 71 56 16924 484106 80477 83% 14 14941623 8129 99%
c caught signal 2 (SIGINT)
c
c ---- [ profiling ] ---------------------------------------------------------
c
c         238.77   84.39 %  search
c         142.94   50.52 %  focused
c          95.82   33.87 %  stable
c          40.25   14.23 %  simplify
c          22.99    8.13 %  probe
c          15.93    5.63 %  reduce
c          15.49    5.48 %  vivify
c          12.55    4.44 %  walking
c           4.03    1.42 %  substitute
c           3.90    1.38 %  parse
c           3.18    1.13 %  autarky
c           1.65    0.58 %  transitive
c           1.52    0.54 %  eliminate
c           0.98    0.35 %  ternary
c           0.83    0.29 %  failed
c =============================================
c         282.92  100.00 %  total
c
c ---- [ statistics ] --------------------------------------------------------
c

Change : 2259304630
Nochange : 2181323049
c conflicts:                           487738             1723.92 per second
c decisions:                          5839330               11.97 per conflict
c propagations:                     353077676          1247962    per second
c reductions:                              56             8710    interval
c rephased:                                30            16258    interval
c restarts:                             17072               28.57 interval
c MAB stats : 45 44 
c
c ---- [ resources ] ---------------------------------------------------------
c
c maximum-resident-set-size:       2162642944 bytes       2062 MB
c process-time:                         4m 42s             282.92 seconds
c raising signal 2 (SIGINT)
